treewidth/data/Grid2dGraph_5_5.gr
p tw 25 40
1 2
1 21
2 13
2 22
13 19
13 23
19 20
19 24
20 25
21 22
21 3
22 23
22 4
23 24
23 5
24 25
24 6
25 7
3 4
3 8
4 5
4 9
5 6
5 10
6 7
6 11
7 12
8 9
8 14
9 10
9 15
10 11
10 16
11 12
11 17
12 18
14 15
15 16
16 17
17 18
