treewidth/data/Grid2dGraph_5_5.td
c width = 5, time = 0.102605
s td 20 6 25
b 1 4 6 8 10 23 25
b 2 2 4 6 8 23 25
b 3 2 4 8 21 23
b 4 3 4 8 21
b 5 2 4 21 22 23
b 6 2 6 19 23 25
b 7 2 13 19 23
b 8 6 19 23 24 25
b 9 4 5 6 10 23
b 10 4 6 8 10 17 25
b 11 6 10 12 17 25
b 12 6 7 12 25
b 13 6 10 11 12 17
b 14 4 8 10 15 17
b 15 4 8 9 10 15
b 16 10 15 16 17
b 17 15 8 14
b 18 17 12 18
b 19 21 2 1
b 20 25 19 20
3 4
3 5
2 3
6 7
6 8
2 6
1 2
1 9
11 12
11 13
10 11
14 15
14 16
10 14
1 10
14 17
11 18
3 19
6 20
